(set-option :produce-models true)
(set-logic QF_LRA)
(set-info :notes | Strip-packing problem.|)
(declare-fun x0 () Real)
(declare-fun y0 () Real)
(declare-fun x1 () Real)
(declare-fun y1 () Real)
(declare-fun x2 () Real)
(declare-fun y2 () Real)
(declare-fun x3 () Real)
(declare-fun y3 () Real)
(declare-fun x4 () Real)
(declare-fun y4 () Real)
(declare-fun x5 () Real)
(declare-fun y5 () Real)
(declare-fun x6 () Real)
(declare-fun y6 () Real)
(declare-fun x7 () Real)
(declare-fun y7 () Real)
(declare-fun x8 () Real)
(declare-fun y8 () Real)
(declare-fun x9 () Real)
(declare-fun y9 () Real)
(declare-fun x10 () Real)
(declare-fun y10 () Real)
(declare-fun x11 () Real)
(declare-fun y11 () Real)
(declare-fun x12 () Real)
(declare-fun y12 () Real)
(declare-fun x13 () Real)
(declare-fun y13 () Real)
(declare-fun x14 () Real)
(declare-fun y14 () Real)
(declare-fun z () Real)
(declare-fun c () Real)
(assert (and (= c z) (and (>= x0 0) 
(and (>= y0 0) 
(and (>= x1 0) 
(and (>= y1 0) 
(and (>= x2 0) 
(and (>= y2 0) 
(and (>= x3 0) 
(and (>= y3 0) 
(and (>= x4 0) 
(and (>= y4 0) 
(and (>= x5 0) 
(and (>= y5 0) 
(and (>= x6 0) 
(and (>= y6 0) 
(and (>= x7 0) 
(and (>= y7 0) 
(and (>= x8 0) 
(and (>= y8 0) 
(and (>= x9 0) 
(and (>= y9 0) 
(and (>= x10 0) 
(and (>= y10 0) 
(and (>= x11 0) 
(and (>= y11 0) 
(and (>= x12 0) 
(and (>= y12 0) 
(and (>= x13 0) 
(and (>= y13 0) 
(and (>= x14 0) 
(and (>= y14 0) 
(and (>= z 0) 
(and (>= c 0) 
(and (<= (+ x0 0.3514570919) z) 
(and (<= 0.8759067194 y0) 
(and (<= y0 1.0) 
(and (<= x0 (- 5.3882065386 0.3514570919)) 
(and (>= x0 0) 
(and (<= (+ x1 0.1819818066) z) 
(and (<= 0.83957819 y1) 
(and (<= y1 1.0) 
(and (<= x1 (- 5.3882065386 0.1819818066)) 
(and (>= x1 0) 
(and (<= (+ x2 0.7961304712) z) 
(and (<= 0.821539237 y2) 
(and (<= y2 1.0) 
(and (<= x2 (- 5.3882065386 0.7961304712)) 
(and (>= x2 0) 
(and (<= (+ x3 0.052921994) z) 
(and (<= 0.6646492241 y3) 
(and (<= y3 1.0) 
(and (<= x3 (- 5.3882065386 0.052921994)) 
(and (>= x3 0) 
(and (<= (+ x4 0.8114050858) z) 
(and (<= 0.6529955464 y4) 
(and (<= y4 1.0) 
(and (<= x4 (- 5.3882065386 0.8114050858)) 
(and (>= x4 0) 
(and (<= (+ x5 0.268041027) z) 
(and (<= 0.5664855651 y5) 
(and (<= y5 1.0) 
(and (<= x5 (- 5.3882065386 0.268041027)) 
(and (>= x5 0) 
(and (<= (+ x6 0.8543307449) z) 
(and (<= 0.5450729955 y6) 
(and (<= y6 1.0) 
(and (<= x6 (- 5.3882065386 0.8543307449)) 
(and (>= x6 0) 
(and (<= (+ x7 0.9198462908) z) 
(and (<= 0.5440541188 y7) 
(and (<= y7 1.0) 
(and (<= x7 (- 5.3882065386 0.9198462908)) 
(and (>= x7 0) 
(and (<= (+ x8 0.1999795429) z) 
(and (<= 0.4670985854 y8) 
(and (<= y8 1.0) 
(and (<= x8 (- 5.3882065386 0.1999795429)) 
(and (>= x8 0) 
(and (<= (+ x9 0.2292161943) z) 
(and (<= 0.2944867731 y9) 
(and (<= y9 1.0) 
(and (<= x9 (- 5.3882065386 0.2292161943)) 
(and (>= x9 0) 
(and (<= (+ x10 0.6905940709) z) 
(and (<= 0.2319818513 y10) 
(and (<= y10 1.0) 
(and (<= x10 (- 5.3882065386 0.6905940709)) 
(and (>= x10 0) 
(and (<= (+ x11 0.4446003342) z) 
(and (<= 0.098847957 y11) 
(and (<= y11 1.0) 
(and (<= x11 (- 5.3882065386 0.4446003342)) 
(and (>= x11 0) 
(and (<= (+ x12 0.9521124835) z) 
(and (<= 0.0670375999 y12) 
(and (<= y12 1.0) 
(and (<= x12 (- 5.3882065386 0.9521124835)) 
(and (>= x12 0) 
(and (<= (+ x13 0.7891660079) z) 
(and (<= 0.0438993539 y13) 
(and (<= y13 1.0) 
(and (<= x13 (- 5.3882065386 0.7891660079)) 
(and (>= x13 0) 
(and (<= (+ x14 0.3736783608) z) 
(and (<= 0.0366842163 y14) 
(and (<= y14 1.0) 
(and (<= x14 (- 5.3882065386 0.3736783608)) 
(and (>= x14 0) 
(and (<= c 5.3882065386) 
(and (or (<= (+ x0 0.3514570919) x1) (or (<= (+ x1 0.1819818066) x0) (or (>= (- y0 0.8759067194) y1) (or (>= (- y1 0.83957819) y0))))) 
(and (or (<= (+ x0 0.3514570919) x2) (or (<= (+ x2 0.7961304712) x0) (or (>= (- y0 0.8759067194) y2) (or (>= (- y2 0.821539237) y0))))) 
(and (or (<= (+ x0 0.3514570919) x3) (or (<= (+ x3 0.052921994) x0) (or (>= (- y0 0.8759067194) y3) (or (>= (- y3 0.6646492241) y0))))) 
(and (or (<= (+ x0 0.3514570919) x4) (or (<= (+ x4 0.8114050858) x0) (or (>= (- y0 0.8759067194) y4) (or (>= (- y4 0.6529955464) y0))))) 
(and (or (<= (+ x0 0.3514570919) x5) (or (<= (+ x5 0.268041027) x0) (or (>= (- y0 0.8759067194) y5) (or (>= (- y5 0.5664855651) y0))))) 
(and (or (<= (+ x0 0.3514570919) x6) (or (<= (+ x6 0.8543307449) x0) (or (>= (- y0 0.8759067194) y6) (or (>= (- y6 0.5450729955) y0))))) 
(and (or (<= (+ x0 0.3514570919) x7) (or (<= (+ x7 0.9198462908) x0) (or (>= (- y0 0.8759067194) y7) (or (>= (- y7 0.5440541188) y0))))) 
(and (or (<= (+ x0 0.3514570919) x8) (or (<= (+ x8 0.1999795429) x0) (or (>= (- y0 0.8759067194) y8) (or (>= (- y8 0.4670985854) y0))))) 
(and (or (<= (+ x0 0.3514570919) x9) (or (<= (+ x9 0.2292161943) x0) (or (>= (- y0 0.8759067194) y9) (or (>= (- y9 0.2944867731) y0))))) 
(and (or (<= (+ x0 0.3514570919) x10) (or (<= (+ x10 0.6905940709) x0) (or (>= (- y0 0.8759067194) y10) (or (>= (- y10 0.2319818513) y0))))) 
(and (or (<= (+ x0 0.3514570919) x11) (or (<= (+ x11 0.4446003342) x0) (or (>= (- y0 0.8759067194) y11) (or (>= (- y11 0.098847957) y0))))) 
(and (or (<= (+ x0 0.3514570919) x12) (or (<= (+ x12 0.9521124835) x0) (or (>= (- y0 0.8759067194) y12) (or (>= (- y12 0.0670375999) y0))))) 
(and (or (<= (+ x0 0.3514570919) x13) (or (<= (+ x13 0.7891660079) x0) (or (>= (- y0 0.8759067194) y13) (or (>= (- y13 0.0438993539) y0))))) 
(and (or (<= (+ x0 0.3514570919) x14) (or (<= (+ x14 0.3736783608) x0) (or (>= (- y0 0.8759067194) y14) (or (>= (- y14 0.0366842163) y0))))) 
(and (or (<= (+ x1 0.1819818066) x2) (or (<= (+ x2 0.7961304712) x1) (or (>= (- y1 0.83957819) y2) (or (>= (- y2 0.821539237) y1))))) 
(and (or (<= (+ x1 0.1819818066) x3) (or (<= (+ x3 0.052921994) x1) (or (>= (- y1 0.83957819) y3) (or (>= (- y3 0.6646492241) y1))))) 
(and (or (<= (+ x1 0.1819818066) x4) (or (<= (+ x4 0.8114050858) x1) (or (>= (- y1 0.83957819) y4) (or (>= (- y4 0.6529955464) y1))))) 
(and (or (<= (+ x1 0.1819818066) x5) (or (<= (+ x5 0.268041027) x1) (or (>= (- y1 0.83957819) y5) (or (>= (- y5 0.5664855651) y1))))) 
(and (or (<= (+ x1 0.1819818066) x6) (or (<= (+ x6 0.8543307449) x1) (or (>= (- y1 0.83957819) y6) (or (>= (- y6 0.5450729955) y1))))) 
(and (or (<= (+ x1 0.1819818066) x7) (or (<= (+ x7 0.9198462908) x1) (or (>= (- y1 0.83957819) y7) (or (>= (- y7 0.5440541188) y1))))) 
(and (or (<= (+ x1 0.1819818066) x8) (or (<= (+ x8 0.1999795429) x1) (or (>= (- y1 0.83957819) y8) (or (>= (- y8 0.4670985854) y1))))) 
(and (or (<= (+ x1 0.1819818066) x9) (or (<= (+ x9 0.2292161943) x1) (or (>= (- y1 0.83957819) y9) (or (>= (- y9 0.2944867731) y1))))) 
(and (or (<= (+ x1 0.1819818066) x10) (or (<= (+ x10 0.6905940709) x1) (or (>= (- y1 0.83957819) y10) (or (>= (- y10 0.2319818513) y1))))) 
(and (or (<= (+ x1 0.1819818066) x11) (or (<= (+ x11 0.4446003342) x1) (or (>= (- y1 0.83957819) y11) (or (>= (- y11 0.098847957) y1))))) 
(and (or (<= (+ x1 0.1819818066) x12) (or (<= (+ x12 0.9521124835) x1) (or (>= (- y1 0.83957819) y12) (or (>= (- y12 0.0670375999) y1))))) 
(and (or (<= (+ x1 0.1819818066) x13) (or (<= (+ x13 0.7891660079) x1) (or (>= (- y1 0.83957819) y13) (or (>= (- y13 0.0438993539) y1))))) 
(and (or (<= (+ x1 0.1819818066) x14) (or (<= (+ x14 0.3736783608) x1) (or (>= (- y1 0.83957819) y14) (or (>= (- y14 0.0366842163) y1))))) 
(and (or (<= (+ x2 0.7961304712) x3) (or (<= (+ x3 0.052921994) x2) (or (>= (- y2 0.821539237) y3) (or (>= (- y3 0.6646492241) y2))))) 
(and (or (<= (+ x2 0.7961304712) x4) (or (<= (+ x4 0.8114050858) x2) (or (>= (- y2 0.821539237) y4) (or (>= (- y4 0.6529955464) y2))))) 
(and (or (<= (+ x2 0.7961304712) x5) (or (<= (+ x5 0.268041027) x2) (or (>= (- y2 0.821539237) y5) (or (>= (- y5 0.5664855651) y2))))) 
(and (or (<= (+ x2 0.7961304712) x6) (or (<= (+ x6 0.8543307449) x2) (or (>= (- y2 0.821539237) y6) (or (>= (- y6 0.5450729955) y2))))) 
(and (or (<= (+ x2 0.7961304712) x7) (or (<= (+ x7 0.9198462908) x2) (or (>= (- y2 0.821539237) y7) (or (>= (- y7 0.5440541188) y2))))) 
(and (or (<= (+ x2 0.7961304712) x8) (or (<= (+ x8 0.1999795429) x2) (or (>= (- y2 0.821539237) y8) (or (>= (- y8 0.4670985854) y2))))) 
(and (or (<= (+ x2 0.7961304712) x9) (or (<= (+ x9 0.2292161943) x2) (or (>= (- y2 0.821539237) y9) (or (>= (- y9 0.2944867731) y2))))) 
(and (or (<= (+ x2 0.7961304712) x10) (or (<= (+ x10 0.6905940709) x2) (or (>= (- y2 0.821539237) y10) (or (>= (- y10 0.2319818513) y2))))) 
(and (or (<= (+ x2 0.7961304712) x11) (or (<= (+ x11 0.4446003342) x2) (or (>= (- y2 0.821539237) y11) (or (>= (- y11 0.098847957) y2))))) 
(and (or (<= (+ x2 0.7961304712) x12) (or (<= (+ x12 0.9521124835) x2) (or (>= (- y2 0.821539237) y12) (or (>= (- y12 0.0670375999) y2))))) 
(and (or (<= (+ x2 0.7961304712) x13) (or (<= (+ x13 0.7891660079) x2) (or (>= (- y2 0.821539237) y13) (or (>= (- y13 0.0438993539) y2))))) 
(and (or (<= (+ x2 0.7961304712) x14) (or (<= (+ x14 0.3736783608) x2) (or (>= (- y2 0.821539237) y14) (or (>= (- y14 0.0366842163) y2))))) 
(and (or (<= (+ x3 0.052921994) x4) (or (<= (+ x4 0.8114050858) x3) (or (>= (- y3 0.6646492241) y4) (or (>= (- y4 0.6529955464) y3))))) 
(and (or (<= (+ x3 0.052921994) x5) (or (<= (+ x5 0.268041027) x3) (or (>= (- y3 0.6646492241) y5) (or (>= (- y5 0.5664855651) y3))))) 
(and (or (<= (+ x3 0.052921994) x6) (or (<= (+ x6 0.8543307449) x3) (or (>= (- y3 0.6646492241) y6) (or (>= (- y6 0.5450729955) y3))))) 
(and (or (<= (+ x3 0.052921994) x7) (or (<= (+ x7 0.9198462908) x3) (or (>= (- y3 0.6646492241) y7) (or (>= (- y7 0.5440541188) y3))))) 
(and (or (<= (+ x3 0.052921994) x8) (or (<= (+ x8 0.1999795429) x3) (or (>= (- y3 0.6646492241) y8) (or (>= (- y8 0.4670985854) y3))))) 
(and (or (<= (+ x3 0.052921994) x9) (or (<= (+ x9 0.2292161943) x3) (or (>= (- y3 0.6646492241) y9) (or (>= (- y9 0.2944867731) y3))))) 
(and (or (<= (+ x3 0.052921994) x10) (or (<= (+ x10 0.6905940709) x3) (or (>= (- y3 0.6646492241) y10) (or (>= (- y10 0.2319818513) y3))))) 
(and (or (<= (+ x3 0.052921994) x11) (or (<= (+ x11 0.4446003342) x3) (or (>= (- y3 0.6646492241) y11) (or (>= (- y11 0.098847957) y3))))) 
(and (or (<= (+ x3 0.052921994) x12) (or (<= (+ x12 0.9521124835) x3) (or (>= (- y3 0.6646492241) y12) (or (>= (- y12 0.0670375999) y3))))) 
(and (or (<= (+ x3 0.052921994) x13) (or (<= (+ x13 0.7891660079) x3) (or (>= (- y3 0.6646492241) y13) (or (>= (- y13 0.0438993539) y3))))) 
(and (or (<= (+ x3 0.052921994) x14) (or (<= (+ x14 0.3736783608) x3) (or (>= (- y3 0.6646492241) y14) (or (>= (- y14 0.0366842163) y3))))) 
(and (or (<= (+ x4 0.8114050858) x5) (or (<= (+ x5 0.268041027) x4) (or (>= (- y4 0.6529955464) y5) (or (>= (- y5 0.5664855651) y4))))) 
(and (or (<= (+ x4 0.8114050858) x6) (or (<= (+ x6 0.8543307449) x4) (or (>= (- y4 0.6529955464) y6) (or (>= (- y6 0.5450729955) y4))))) 
(and (or (<= (+ x4 0.8114050858) x7) (or (<= (+ x7 0.9198462908) x4) (or (>= (- y4 0.6529955464) y7) (or (>= (- y7 0.5440541188) y4))))) 
(and (or (<= (+ x4 0.8114050858) x8) (or (<= (+ x8 0.1999795429) x4) (or (>= (- y4 0.6529955464) y8) (or (>= (- y8 0.4670985854) y4))))) 
(and (or (<= (+ x4 0.8114050858) x9) (or (<= (+ x9 0.2292161943) x4) (or (>= (- y4 0.6529955464) y9) (or (>= (- y9 0.2944867731) y4))))) 
(and (or (<= (+ x4 0.8114050858) x10) (or (<= (+ x10 0.6905940709) x4) (or (>= (- y4 0.6529955464) y10) (or (>= (- y10 0.2319818513) y4))))) 
(and (or (<= (+ x4 0.8114050858) x11) (or (<= (+ x11 0.4446003342) x4) (or (>= (- y4 0.6529955464) y11) (or (>= (- y11 0.098847957) y4))))) 
(and (or (<= (+ x4 0.8114050858) x12) (or (<= (+ x12 0.9521124835) x4) (or (>= (- y4 0.6529955464) y12) (or (>= (- y12 0.0670375999) y4))))) 
(and (or (<= (+ x4 0.8114050858) x13) (or (<= (+ x13 0.7891660079) x4) (or (>= (- y4 0.6529955464) y13) (or (>= (- y13 0.0438993539) y4))))) 
(and (or (<= (+ x4 0.8114050858) x14) (or (<= (+ x14 0.3736783608) x4) (or (>= (- y4 0.6529955464) y14) (or (>= (- y14 0.0366842163) y4))))) 
(and (or (<= (+ x5 0.268041027) x6) (or (<= (+ x6 0.8543307449) x5) (or (>= (- y5 0.5664855651) y6) (or (>= (- y6 0.5450729955) y5))))) 
(and (or (<= (+ x5 0.268041027) x7) (or (<= (+ x7 0.9198462908) x5) (or (>= (- y5 0.5664855651) y7) (or (>= (- y7 0.5440541188) y5))))) 
(and (or (<= (+ x5 0.268041027) x8) (or (<= (+ x8 0.1999795429) x5) (or (>= (- y5 0.5664855651) y8) (or (>= (- y8 0.4670985854) y5))))) 
(and (or (<= (+ x5 0.268041027) x9) (or (<= (+ x9 0.2292161943) x5) (or (>= (- y5 0.5664855651) y9) (or (>= (- y9 0.2944867731) y5))))) 
(and (or (<= (+ x5 0.268041027) x10) (or (<= (+ x10 0.6905940709) x5) (or (>= (- y5 0.5664855651) y10) (or (>= (- y10 0.2319818513) y5))))) 
(and (or (<= (+ x5 0.268041027) x11) (or (<= (+ x11 0.4446003342) x5) (or (>= (- y5 0.5664855651) y11) (or (>= (- y11 0.098847957) y5))))) 
(and (or (<= (+ x5 0.268041027) x12) (or (<= (+ x12 0.9521124835) x5) (or (>= (- y5 0.5664855651) y12) (or (>= (- y12 0.0670375999) y5))))) 
(and (or (<= (+ x5 0.268041027) x13) (or (<= (+ x13 0.7891660079) x5) (or (>= (- y5 0.5664855651) y13) (or (>= (- y13 0.0438993539) y5))))) 
(and (or (<= (+ x5 0.268041027) x14) (or (<= (+ x14 0.3736783608) x5) (or (>= (- y5 0.5664855651) y14) (or (>= (- y14 0.0366842163) y5))))) 
(and (or (<= (+ x6 0.8543307449) x7) (or (<= (+ x7 0.9198462908) x6) (or (>= (- y6 0.5450729955) y7) (or (>= (- y7 0.5440541188) y6))))) 
(and (or (<= (+ x6 0.8543307449) x8) (or (<= (+ x8 0.1999795429) x6) (or (>= (- y6 0.5450729955) y8) (or (>= (- y8 0.4670985854) y6))))) 
(and (or (<= (+ x6 0.8543307449) x9) (or (<= (+ x9 0.2292161943) x6) (or (>= (- y6 0.5450729955) y9) (or (>= (- y9 0.2944867731) y6))))) 
(and (or (<= (+ x6 0.8543307449) x10) (or (<= (+ x10 0.6905940709) x6) (or (>= (- y6 0.5450729955) y10) (or (>= (- y10 0.2319818513) y6))))) 
(and (or (<= (+ x6 0.8543307449) x11) (or (<= (+ x11 0.4446003342) x6) (or (>= (- y6 0.5450729955) y11) (or (>= (- y11 0.098847957) y6))))) 
(and (or (<= (+ x6 0.8543307449) x12) (or (<= (+ x12 0.9521124835) x6) (or (>= (- y6 0.5450729955) y12) (or (>= (- y12 0.0670375999) y6))))) 
(and (or (<= (+ x6 0.8543307449) x13) (or (<= (+ x13 0.7891660079) x6) (or (>= (- y6 0.5450729955) y13) (or (>= (- y13 0.0438993539) y6))))) 
(and (or (<= (+ x6 0.8543307449) x14) (or (<= (+ x14 0.3736783608) x6) (or (>= (- y6 0.5450729955) y14) (or (>= (- y14 0.0366842163) y6))))) 
(and (or (<= (+ x7 0.9198462908) x8) (or (<= (+ x8 0.1999795429) x7) (or (>= (- y7 0.5440541188) y8) (or (>= (- y8 0.4670985854) y7))))) 
(and (or (<= (+ x7 0.9198462908) x9) (or (<= (+ x9 0.2292161943) x7) (or (>= (- y7 0.5440541188) y9) (or (>= (- y9 0.2944867731) y7))))) 
(and (or (<= (+ x7 0.9198462908) x10) (or (<= (+ x10 0.6905940709) x7) (or (>= (- y7 0.5440541188) y10) (or (>= (- y10 0.2319818513) y7))))) 
(and (or (<= (+ x7 0.9198462908) x11) (or (<= (+ x11 0.4446003342) x7) (or (>= (- y7 0.5440541188) y11) (or (>= (- y11 0.098847957) y7))))) 
(and (or (<= (+ x7 0.9198462908) x12) (or (<= (+ x12 0.9521124835) x7) (or (>= (- y7 0.5440541188) y12) (or (>= (- y12 0.0670375999) y7))))) 
(and (or (<= (+ x7 0.9198462908) x13) (or (<= (+ x13 0.7891660079) x7) (or (>= (- y7 0.5440541188) y13) (or (>= (- y13 0.0438993539) y7))))) 
(and (or (<= (+ x7 0.9198462908) x14) (or (<= (+ x14 0.3736783608) x7) (or (>= (- y7 0.5440541188) y14) (or (>= (- y14 0.0366842163) y7))))) 
(and (or (<= (+ x8 0.1999795429) x9) (or (<= (+ x9 0.2292161943) x8) (or (>= (- y8 0.4670985854) y9) (or (>= (- y9 0.2944867731) y8))))) 
(and (or (<= (+ x8 0.1999795429) x10) (or (<= (+ x10 0.6905940709) x8) (or (>= (- y8 0.4670985854) y10) (or (>= (- y10 0.2319818513) y8))))) 
(and (or (<= (+ x8 0.1999795429) x11) (or (<= (+ x11 0.4446003342) x8) (or (>= (- y8 0.4670985854) y11) (or (>= (- y11 0.098847957) y8))))) 
(and (or (<= (+ x8 0.1999795429) x12) (or (<= (+ x12 0.9521124835) x8) (or (>= (- y8 0.4670985854) y12) (or (>= (- y12 0.0670375999) y8))))) 
(and (or (<= (+ x8 0.1999795429) x13) (or (<= (+ x13 0.7891660079) x8) (or (>= (- y8 0.4670985854) y13) (or (>= (- y13 0.0438993539) y8))))) 
(and (or (<= (+ x8 0.1999795429) x14) (or (<= (+ x14 0.3736783608) x8) (or (>= (- y8 0.4670985854) y14) (or (>= (- y14 0.0366842163) y8))))) 
(and (or (<= (+ x9 0.2292161943) x10) (or (<= (+ x10 0.6905940709) x9) (or (>= (- y9 0.2944867731) y10) (or (>= (- y10 0.2319818513) y9))))) 
(and (or (<= (+ x9 0.2292161943) x11) (or (<= (+ x11 0.4446003342) x9) (or (>= (- y9 0.2944867731) y11) (or (>= (- y11 0.098847957) y9))))) 
(and (or (<= (+ x9 0.2292161943) x12) (or (<= (+ x12 0.9521124835) x9) (or (>= (- y9 0.2944867731) y12) (or (>= (- y12 0.0670375999) y9))))) 
(and (or (<= (+ x9 0.2292161943) x13) (or (<= (+ x13 0.7891660079) x9) (or (>= (- y9 0.2944867731) y13) (or (>= (- y13 0.0438993539) y9))))) 
(and (or (<= (+ x9 0.2292161943) x14) (or (<= (+ x14 0.3736783608) x9) (or (>= (- y9 0.2944867731) y14) (or (>= (- y14 0.0366842163) y9))))) 
(and (or (<= (+ x10 0.6905940709) x11) (or (<= (+ x11 0.4446003342) x10) (or (>= (- y10 0.2319818513) y11) (or (>= (- y11 0.098847957) y10))))) 
(and (or (<= (+ x10 0.6905940709) x12) (or (<= (+ x12 0.9521124835) x10) (or (>= (- y10 0.2319818513) y12) (or (>= (- y12 0.0670375999) y10))))) 
(and (or (<= (+ x10 0.6905940709) x13) (or (<= (+ x13 0.7891660079) x10) (or (>= (- y10 0.2319818513) y13) (or (>= (- y13 0.0438993539) y10))))) 
(and (or (<= (+ x10 0.6905940709) x14) (or (<= (+ x14 0.3736783608) x10) (or (>= (- y10 0.2319818513) y14) (or (>= (- y14 0.0366842163) y10))))) 
(and (or (<= (+ x11 0.4446003342) x12) (or (<= (+ x12 0.9521124835) x11) (or (>= (- y11 0.098847957) y12) (or (>= (- y12 0.0670375999) y11))))) 
(and (or (<= (+ x11 0.4446003342) x13) (or (<= (+ x13 0.7891660079) x11) (or (>= (- y11 0.098847957) y13) (or (>= (- y13 0.0438993539) y11))))) 
(and (or (<= (+ x11 0.4446003342) x14) (or (<= (+ x14 0.3736783608) x11) (or (>= (- y11 0.098847957) y14) (or (>= (- y14 0.0366842163) y11))))) 
(and (or (<= (+ x12 0.9521124835) x13) (or (<= (+ x13 0.7891660079) x12) (or (>= (- y12 0.0670375999) y13) (or (>= (- y13 0.0438993539) y12))))) 
(and (or (<= (+ x12 0.9521124835) x14) (or (<= (+ x14 0.3736783608) x12) (or (>= (- y12 0.0670375999) y14) (or (>= (- y14 0.0366842163) y12))))) 
(and (or (<= (+ x13 0.7891660079) x14) (or (<= (+ x14 0.3736783608) x13) (or (>= (- y13 0.0438993539) y14) (or (>= (- y14 0.0366842163) y13))))) )))))))))))))))))))))))))))))))))))))))))))))))))))))))))))))))))))))))))))))))))))))))))))))))))))))))))))))))))))))))))))))))))))))))))))))))))))))))))))))))))))))))))))))))))))))))))))))))))))))))))))))))))))))))
(minimize c)
(check-sat)
(get-objectives)
(exit)
